nNurses = 177;
nHours = 39;
minHours = 5;
maxHours = 8;
maxConsec = 7;
maxPresence = 14;
demand = [15, 12, 14, 15, 17, 20, 22, 24, 27, 32, 32, 34, 32, 36, 35, 34, 34, 35, 33, 37, 32, 35, 33, 36, 32, 28, 26, 28, 25, 25, 30, 28, 33, 37, 32, 33, 30, 30, 34];
